m = 4;
l = [20, 15, 10, 8];

n = 6;
s = [2, 5, 3, 4, 2, 1];

D =[| 0, 3, 5, 4, 6, 7, 5
    | 3, 0, 4, 5, 3, 6, 4
    | 5, 4, 0, 2, 5, 4, 7
    | 4, 5, 2, 0, 4, 5, 6
    | 6, 3, 5, 4, 0, 3, 4
    | 7, 6, 4, 5, 3, 0, 2
    | 5, 4, 7, 6, 4, 2, 0 |]
    
% ----------
% [| 13 | 11 | 10 | 12 |]

% [| 0 | 0 | 3 | 0 | 0 | 1 |]
% [| 0 | 5 | 0 | 0 | 2 | 0 |]
% [| 2 | 0 | 0 | 0 | 0 | 0 |]
% [| 0 | 0 | 0 | 4 | 0 | 0 |]

% [| 0 | 0 | 2 | 0 | 0 | 1 |]
% [| 0 | 2 | 0 | 0 | 1 | 0 |]
% [| 1 | 0 | 0 | 0 | 0 | 0 |]
% [| 0 | 0 | 0 | 1 | 0 | 0 |]
% ----------
% ==========
% %%%mzn-stat: failures=524849
% %%%mzn-stat: initTime=0.016
% %%%mzn-stat: nodes=1049705
% %%%mzn-stat: peakDepth=33
% %%%mzn-stat: propagations=171073196
% %%%mzn-stat: propagators=1525
% %%%mzn-stat: restarts=0
% %%%mzn-stat: solutions=3
% %%%mzn-stat: solveTime=12.68
% %%%mzn-stat: variables=1101
% %%%mzn-stat-end
% %%%mzn-stat: nSolutions=3
% %%%mzn-stat-end
% Finished in 12s 936msec.